ATOMIC_SPECIES
Ga  69.7230 Ga.upf upf201
As  74.9216 As.PD04.PBE.UPF upf201

NUMERICAL_ORBITAL
Ga_gga_7au_100Ry_2s2p2d1f.orb
As_gga_8au_100Ry_2s2p1d.orb

LATTICE_CONSTANT
1.8897160000

LATTICE_VECTORS
        6.2881167169       -0.0000000039       -0.0000000010
       -0.0000000039        6.2881167169        0.0000000005
       -0.0000000010        0.0000000005        6.2881167191

ATOMIC_POSITIONS
Direct

Ga #label
0.0000   #magnetism
4 #number of atoms
        0.0000000081        0.9999999941        0.9999999959 m 1 1 1
        0.0000000081        0.5000000079        0.5000000109 m 1 1 1
        0.4999999941        0.9999999941        0.5000000109 m 1 1 1
        0.4999999941        0.5000000079        0.9999999959 m 1 1 1

As #label
0.0000   #magnetism
4 #number of atoms
        0.2499999989        0.2499999990        0.2499999966 m 1 1 1
        0.2499999989        0.7499999990        0.7499999966 m 1 1 1
        0.7499999989        0.2499999990        0.7499999966 m 1 1 1
        0.7499999989        0.7499999990        0.2499999966 m 1 1 1
