INPUT_PARAMETERS
suffix	ABACUS
calculation	scf
ecutwfc	100
scf_thr	1e-07
scf_nmax	100
out_chg	0
smearing_method	gauss
smearing_sigma	0.01
mixing_type	broyden
mixing_ndim	10
ks_solver	genelpa
basis_type	lcao
symmetry	0
noncolin	1
lspinorb	0
nspin	4
out_mul	true
sc_mag_switch	1
decay_grad_switch	1
sc_thr	1e-07
sc_scf_thr	1e-09
nsc	100
nsc_min	2
alpha_trial	0.01
sccut	3
cal_force	1
