ATOMIC_SPECIES
Fe 55.845 Fe.upf

NUMERICAL_ORBITAL
Fe_gga_10au_200.0Ry_4s2p2d1f.orb

LATTICE_CONSTANT
1.880277359
LATTICE_VECTORS
    2.8274254848     0.0000000000     0.0000000000 #latvec1
    0.0000000000     2.8274254848     0.0000000000 #latvec2
    0.0000000000     0.0000000000     2.8274254848 #latvec3

ATOMIC_POSITIONS
Direct

Fe #label
1 #magnetism
4 #number of atoms
    0.0000000000     0.000000000     0.000000000 mag 0 0 2
    0.1000000000     0.1000000000     0.1000000000 mag 3
    0.2000000000     0.2000000000     0.2000000000 mag 3 angle1 90
    0.3000000000     0.3000000000     0.3000000000 mag 3 4 0 angle1 90 angle2 90

