INPUT_PARAMETERS
calculation 	md
nbands 		8

ecutwfc 	50.000000
scf_thr 	1.000000e-07
scf_nmax 	100

basis_type 	lcao
dft_functional 	lda
gamma_only 	1

mixing_type 	pulay
mixing_beta 	0.400000
smearing_method gaussian
smearing_sigma 	0.020000

cal_force 	1
cal_stress	1

md_type		0
md_nstep	10
md_tfirst	10
md_dt	        1
chg_extrap	second-order

deepks_scf 	1
deepks_bandgap 	0
deepks_model 	model.ptg
