ATOMIC_SPECIES
H 1.000 H_ONCV_PBE-1.0.upf
O 1.000 O_ONCV_PBE-1.0.upf

LATTICE_CONSTANT
1.8897261254578281

LATTICE_VECTORS
14.524509151052237 0.0 0.0 
-0.014055052627607307 15.127720223675517 0.0 
-0.44236943482340674 0.4176481841581627 14.953520775917804 

ATOMIC_POSITIONS
Cartesian    # Cartesian(Unit is LATTICE_CONSTANT)
H
0.0
2
10.872796345702 0.993283528425 3.293903479780 1 1 1
10.341931867309 14.686041612291 2.160229648213 1 1 1
O
0.0
1
10.133374044864 0.350751910559 3.193008852349 1 1 1

NUMERICAL_ORBITAL
H_gga_6au_60Ry_2s1p.orb
O_gga_6au_60Ry_2s2p1d.orb

NUMERICAL_DESCRIPTOR
jle.orb
