ATOMIC_SPECIES
C 12 C.upf
H 1 H.upf

NUMERICAL_ORBITAL
C.orb
H.orb

NUMERICAL_DESCRIPTOR
jle.orb

LATTICE_CONSTANT
1.8897261246257702

LATTICE_VECTORS
5.291772109029999 0.0 0.0 
0.0 5.291772109029999 0.0 
0.0 0.0 5.291772109029999 

ATOMIC_POSITIONS
Cartesian    # Cartesian(Unit is LATTICE_CONSTANT)
C
0.0
1
5.192682633809 4.557725978258 4.436846615358 1 1 1
H
0.0
4
5.416431453540 4.011298860305 3.511161492417 1 1 1
4.131588222365 4.706745191323 4.431136645083 1 1 1
5.630930319126 5.521640894956 4.450356541303 1 1 1
5.499851012568 4.003388899277 5.342621842622 1 1 1
