#This is the atom file containing all the information
#about the lattice structure.

ATOMIC_SPECIES
Si 1.000 Si.pz-vbc.UPF 	#Element, Mass, Pseudopotential

NUMERICAL_ORBITAL
./Si_lda_8.0au_50Ry_2s2p1d

LATTICE_CONSTANT
15  			#Lattice constant

LATTICE_VECTORS
1.0 0.0 0.0 		#Lattice vector 1
0.0 1.0 0.0 		#Lattice vector 2
0.0 0.0 1.0 		#Lattice vector 3

ATOMIC_POSITIONS
Cartesian 		#Cartesian(Unit is LATTICE_CONSTANT)
Si 			#Name of element	
0.0			#Magnetic for this element.
2			#Number of atoms
0.00 0.00 0.00 0 0 0	#x,y,z, move_x, move_y, move_z
0.28 0.00 0.00 1 0 0
