H6 O3 
1.0
7.8228387655643719e+00 0.0000000000000000e+00 1.0000000000000000e+00 
2.0000000000000000e+00 7.3535726471820508e+00 3.0000000000000000e+00 
4.0000000000000000e+00 5.0000000000000000e+00 9.0365185154237526e+00 
H O 
6 3 
Cartesian
   1.7700000000    1.4900000000    2.6200000000
   0.4600000000    1.4900000000    3.3900000000
   5.6700000000    4.8100000000    0.3500000000
   5.6800000000    4.8100000000    1.8600000000
   6.5300000000    6.3400000000    3.3600000000
   7.4300000000    5.1200000000    3.3600000000
   1.3500000000    1.8300000000    3.4100000000
   5.2000000000    4.4700000000    1.1100000000
   6.5100000000    5.3900000000    3.3500000000
