&GLOBAL
  PRINT_LEVEL medium
  WALLTIME 43000
  PROJECT_NAME DPGEN
  RUN_TYPE MD
&END GLOBAL
&MOTION
  &MD
    STEPS 20000
    ENSEMBLE REFTRAJ
    &REFTRAJ
      TRAJ_FILE_NAME reftraj.xyz
      EVAL_ENERGY_FORCES .TRUE.
      EVAL_FORCES .TRUE.
      FIRST_SNAPSHOT 1
      LAST_SNAPSHOT 30
      STRIDE 1
    &END REFTRAJ
  &END MD
  &PRINT
    &FORCES
      &EACH
        MD 1
      &END EACH
    &END FORCES
    &TRAJECTORY
      &EACH
        MD 1
      &END EACH
    &END TRAJECTORY
    &RESTART
      BACKUP_COPIES 3
      &EACH
        MD 1
      &END EACH
    &END RESTART
  &END PRINT
&END MOTION
&FORCE_EVAL
  METHOD QS
  STRESS_TENSOR ANALYTICAL
  &PRINT
    &FORCES ON
    &END FORCES
  &END PRINT
  &SUBSYS
    &CELL
      B 0.0 12.068 0.0
      A 10.451 0.0 0.0
      PERIODIC XYZ
      C 0.0 0.0 39.754
    &END CELL
    &COORD
      O 9.75251318 3.55512059 9.90229979
      O 7.12977092 11.0138633 9.88062337
      O 7.11300701 7.898881910000001 9.77882497
      O 9.94580823 6.4545643 10.16423558
      O 4.48223202 9.53151779 9.90564887
      O 1.86847071 10.94097568 9.879891
      O 1.9847060799999998 7.826416860000001 9.90589646
      O 4.629803699999999 6.536617030000001 9.95420986
      O 7.188776749999999 5.07018514 9.893972479999999
      O 7.198565399999999 1.9840553799999998 10.006659309999998
      O 9.66394448 0.44832508000000004 9.955312819999998
      O 4.74265347 3.4577293 10.11317013
      O 2.1564306799999997 4.82149917 9.90989437
      O 1.8952488999999997 2.00209089 9.91352615
      O 4.51743761 0.48294367000000005 9.86737559
      O 9.659511579999998 9.52012708 10.08383155
      Co 2.8304579199999997 9.40784067 8.866284979999998
      Co 0.19076348 10.99407288 8.88002495
      Co 2.85992281 6.419636120000001 8.70699164
      Co 2.7666371999999995 3.3662032 8.78084439
      Co 8.0269233 9.48140491 8.691902869999998
      Co 5.4493879 8.02899849 8.73611356
      Co 5.364389459999999 10.92010259 8.767963569999997
      Co 0.10282401 2.02118215 8.881447179999999
      Co 0.24986184 5.00230733 8.77992115
      Co 8.00079413 0.46864986 8.79129109
      Co 5.441781489999999 1.9951627700000003 8.87751947
      Co 8.010461429999998 3.43885461 8.94708455
      Co 8.0681779 6.46407707 8.7030595
      Co 2.8444111199999997 0.3974732000000001 8.85662804
      Co 5.43461862 4.90047712 8.84361175
      Co 0.18381586999999996 7.99434608 8.92664883
      O 6.35804962 6.371093840000001 7.44543174
      O 8.91773677 10.98498172 7.62236918
      O 6.223882749999999 3.47077958 7.699280229999999
      O 8.97569845 7.8771167900000005 7.63235742
      O 9.00749855 4.93504517 7.62176475
      O 8.79941317 1.95118547 7.537471979999999
      O 6.378835 9.46348061 7.431726189999999
      O 1.1000414499999998 6.50287675 7.540445609999999
      O 1.09627167 3.5235897900000004 7.59577855
      O 3.7152284899999994 7.989363450000001 7.45383398
      O 3.6662550799999996 11.00458845 7.516339589999999
      O 1.04077345 0.43252108000000006 7.66435446
      O 6.275555359999999 0.45674909 7.577144539999999
      O 3.6819559599999994 1.90501222 7.55253204
      O 3.6370276899999996 4.94656304 7.501551649999999
      O 1.18184631 9.4248619 7.63884757
      Al 7.08535238 11.069369570000001 6.20512135
      Al 9.76617433 9.48077267 6.30334897
      Al 9.900752 6.346650900000001 6.35306855
      Al 4.59435624 3.62447581 6.38323244
      Al 1.91224409 4.89955964 6.22440127
      Al 1.9247196599999998 2.06537485 6.292081389999999
      Al 1.91226009 10.99889301 6.45756011
      Al 1.8531388799999997 8.03337921 6.28903592
      Al 4.59107757 6.522927480000001 6.306541529999999
      Al 4.42706741 9.45923252 6.30514243
      Al 7.20782783 7.920233 6.36940527
      Al 7.287864309999999 4.91606919 6.36505251
      Al 9.869134129999999 0.40822042 6.36931858
      Al 7.09847267 1.80816731 6.29085327
      Al 9.814850849999997 3.38908324 6.39906321
      Al 4.52372788 0.48654985 6.3699527
      O 5.43664883 8.07580192 5.15242462
      O 0.23466312 7.95394525 5.031055389999999
      O 8.16288766 6.47273618 5.11674899
      O 5.31457075 11.03581119 5.10514411
      O 2.84013881 6.47981111 5.077977119999999
      O 8.09421333 3.34587818 5.175920959999999
      O 8.19917453 9.46641185 5.112379619999999
      O 0.25585612 1.9190798500000001 5.13659357
      O 0.24675359999999996 10.93026083 4.994616639999999
      O 5.445343509999999 4.97051732 5.113478789999999
      O 8.07161067 0.357811 5.04345976
      O 5.4942429299999995 1.9791057900000002 5.0537221
      O 0.22130198 4.89031031 5.01238591
      O 2.81663593 0.55952109 5.11542411
      O 2.71280277 3.4388339100000005 5.05749168
      O 2.7450065499999994 9.47122396 5.029390579999999
      Co 3.55962795 8.06729107 3.80944473
      Co 6.20465481 9.51291276 3.7363314699999997
      Co 8.87075695 10.93237534 3.8084893999999996
      Co 3.7796366299999997 2.03098398 3.86342781
      Co 1.0811943199999998 9.42347919 3.8147395599999996
      Co 1.0132780999999997 6.349607070000001 3.79771217
      Co 6.265109429999999 0.50569461 3.8835244999999996
      Co 8.86877461 4.88155423 3.90533741
      Co 9.02138387 1.9154820799999999 3.81363287
      Co 6.2262061399999995 3.3399252600000002 3.7883225
      Co 6.271274319999999 6.50129155 3.9221292299999995
      Co 1.08946696 0.45413431 3.8930290299999997
      Co 1.13288053 3.55981389 3.71979351
      Co 3.6828151199999994 4.98252606 3.8660327299999997
      Co 3.54122866 11.06653438 3.8772211199999997
      Co 8.92230164 7.91004789 3.87801335
      O 1.9555085799999998 1.9950728700000002 2.5366847699999995
      O 2.0714915 5.16077953 2.51041266
      O 4.525432939999999 9.54567578 2.60891178
      O 4.4232953 0.48462890000000003 2.5013114199999995
      O 7.06450522 4.9693168 2.75789687
      O 1.9379263899999999 11.18717065 2.65438232
      O 4.65015115 3.57508384 2.56761609
      O 1.8563203699999997 8.00942888 2.43700608
      O 4.52904533 6.477758690000001 2.6314472399999995
      O 6.994524869999999 1.88275855 2.44756038
      O 9.69618934 6.617088500000001 2.65067889
      O 7.043540719999999 10.99683228 2.52285242
      O 9.842919789999998 3.4827824 2.6359448599999995
      O 9.7053858 0.41308247 2.59418455
      O 9.71304494 9.5524973 2.5777991699999996
      O 7.15600543 8.03974979 2.60886673
      Al 0.25581734999999994 5.0260418 1.4081902399999997
      Al 7.77662966 9.537895 1.3179021
      Al 2.6900395199999996 0.53296633 1.23004727
      Al 5.30961886 11.13858667 1.15816886
      Al 5.43701442 5.07659839 1.39655533
      Al 5.35237833 7.876331340000001 1.5150534299999998
      Al 2.80051025 6.69835635 1.31445769
      Al 10.41026555 11.09594874 1.28321625
      Al 0.09278256 7.95297158 1.3908273999999998
      Al 7.939045439999999 0.31830293 1.3937239399999999
      Al 5.467582589999999 1.98666613 1.15284528
      Al 2.6818532799999995 9.63968698 1.33123318
      Al 2.97304509 3.6454481700000003 1.22052789
      Al 0.24021200999999998 1.91723879 1.40804154
      Al 7.95039116 6.48578049 1.4825703599999998
      Al 8.025404 3.44841401 1.4052629299999997
      O 3.77373771 5.19526545 0.18403716999999997
      O 3.7129238499999997 2.04705101 0.20969198
      O 5.943033819999999 9.38473714 0.16144521999999997
      O 8.7364328 11.01201875 0.25326670999999995
      O 1.06415184 3.5261409000000006 0.27236262
      O 8.96583449 5.04748395 0.37924304
      O 6.090136759999999 0.44999343 39.51588643
      O 8.85633225 1.89080536 0.35827656999999996
      O 6.35620584 3.4985248100000006 0.1863768
      O 6.3627815 6.553659190000001 0.36179311
      O 1.15732232 6.52941656 0.26334403
      O 3.56993373 8.17914504 39.59453936
      O 3.54025803 10.97391923 0.12415528999999999
      O 0.9018228899999999 9.50466177 0.26145266
      O 8.89757357 7.838246840000001 0.19530896999999997
      O 0.95379721 0.42211468 0.14780866999999998
      H 9.68987928 3.45283065 10.833513989999998
      H 7.142847409999999 11.04323537 10.911335329999998
      H 6.98738993 7.99091452 10.73516032
      H 0.16343215999999997 6.43566197 10.83207925
      H 4.711121499999999 9.6204862 10.881945049999999
      H 2.08094879 11.16198765 10.801457349999998
      H 2.13896182 7.608085470000001 10.83850309
      H 4.14300192 7.08881761 10.59910595
      H 7.13329918 5.09662701 10.89774931
      H 7.286636229999999 1.91469248 10.9538704
      H 9.621846859999998 0.63677808 10.93139577
      H 3.9280613 3.5845071400000004 10.75595923
      H 1.9928675799999997 4.79127102 10.89672268
      H 1.67690698 1.94822457 10.86642867
      H 4.49981641 0.5760037 10.83414416
      H 9.41364972 9.5053565 11.02137896
      H 3.97205577 4.78961294 39.04251431
      H 3.54766421 2.19035953 39.01952078
      H 6.401743129999999 9.27660314 39.03658712
      H 8.64982708 11.3544542 39.115158019999996
      H 0.9701770399999999 3.57248409 39.083225739999996
      H 8.90330458 4.95402212 39.16228288
      H 5.317218019999999 0.7845455100000001 38.92515047
      H 8.89099236 1.8270832400000003 39.13989906
      H 6.433451669999999 3.4278272499999995 38.98092643
      H 6.230597059999999 6.71333102 39.13904644
      H 1.0126625699999998 6.120479320000001 39.11223848
      H 4.13265869 8.94904885 39.31557846
      H 3.6442753899999993 10.62534302 38.96331755999999
      H 0.55713724 9.35159949 39.10316090999999
      H 9.007422949999999 7.21043374 39.1885415
      H 0.70446711 0.85673149 39.07332602999999
      O 2.06349503 8.66957231 37.28326337
      H 2.99431682 8.68506746 36.880422839999994
      H 2.35774727 8.60746901 38.25636612
      O 6.87936061 0.5779594 13.424938239999998
      H 7.428850979999999 1.01911404 14.11628741
      H 7.2694866199999995 11.73119043 13.376350519999999
      O 5.03116975 7.051101240000001 37.60476854
      H 4.49596321 7.353960780000001 38.43969534
      H 4.45440104 6.333920090000001 37.28761896
      O 9.53995952 3.55586703 36.65164024
      H 8.88604453 4.22412464 36.790172299999995
      H 10.17016743 3.8832744700000004 35.92402572
      O 10.03097813 9.94075745 27.62498444
      H 0.50448965 9.88699443 27.379230809999996
      H 9.44985395 9.83495597 26.751668489999997
      O 1.03802788 4.14761649 26.6581983
      H 1.15894382 3.3800369900000002 26.00930175
      H 0.49550257999999997 3.7846970900000003 27.448413219999996
      O 0.1390424 8.27177151 19.05599572
      H 9.86457309 7.91254518 18.4903229
      H 0.18505963 7.640161880000001 19.82004535
      O 3.82663476 3.69305594 37.618962399999994
      H 3.70401785 4.17753732 36.74266864
      H 4.71555434 3.31280531 37.54857728999999
      O 1.6763691299999999 3.00262272 16.14963633
      H 1.19057265 3.80764911 16.392741069999996
      H 1.05378801 2.40527356 16.69729338
      O 0.7320117799999999 6.28992078 36.97720492
      H 1.34301519 7.12741604 36.98490417
      H 1.25141607 5.88471854 36.25984488
      O 2.1135679 9.15869226 17.51849993
      H 2.46235799 8.39718148 16.95138698
      H 1.40225835 8.85557028 18.06293745
      O 8.86182232 9.61362927 25.12388873
      H 9.43837829 8.91389043 24.591793469999995
      H 8.04815867 9.15303489 25.61714627
      O 1.46451473 10.86113483 12.750365939999998
      H 0.9865062 10.32716828 12.07050344
      H 0.9131085399999999 11.68085873 12.84739576
      O 9.512867259999998 10.37890061 20.70583779
      H 9.42365471 11.26114399 20.32423197
      H 9.92359959 9.79774962 20.06163941
      O 8.38043811 8.99564227 37.3792541
      H 7.978604079999999 9.9238805 37.24744275
      H 8.5608354 8.84363506 38.36300602
      O 6.96602421 11.21988617 17.10940812
      H 7.47275507 10.78912606 16.329171319999997
      H 6.537321279999999 12.0309608 16.64454298
      O 7.597220449999999 6.21453811 26.528463949999995
      H 6.893633739999999 6.879704500000001 26.42103147
      H 7.23425434 5.43279797 27.059038239999996
      O 4.80086643 2.6448636 34.0401304
      H 4.10808242 2.13926118 34.53393428
      H 5.667055449999999 2.35129097 34.163533859999994
      O 10.36515552 6.39551408 21.5590318
      H 0.5090391 5.65956721 21.26530506
      H 0.06628788 6.782589650000001 22.448578019999996
      O 8.651420639999998 1.9713609500000002 26.28675702
      H 9.367929359999998 2.4720122 26.762228199999996
      H 7.73109655 1.9602434200000003 26.756928669999997
      O 6.190246499999999 11.33254234 35.23212694
      H 5.389410149999999 11.84113012 35.36348952
      H 6.79576206 11.64094547 36.04040027
      O 7.73234867 9.70487057 13.27196956
      H 8.03381248 8.77427426 12.819429179999998
      H 7.91531859 9.71278455 14.261887929999999
      O 7.46482574 11.5703955 37.57872203
      H 6.96432291 11.83197871 38.52145816
      H 8.28019466 0.05369088 37.48708709
      O 7.807015509999999 6.688959580000001 21.71529285
      H 7.6576349299999995 7.65281764 21.82884116
      H 8.79170414 6.51210487 21.591413899999996
      O 3.40943772 7.05313151 21.973764489999997
      H 4.08148978 6.7748659 21.278491119999998
      H 3.66182261 7.992423120000001 22.20410668
      O 7.347288479999999 1.6179292400000003 22.25981748
      H 7.928631489999999 2.26151821 22.66740348
      H 6.42540425 1.8993214300000003 22.442829299999996
      O 7.07998937 5.30968596 23.680788479999997
      H 7.36314477 5.67085432 24.58793727
      H 7.44217954 5.9544743 22.969679909999996
      O 10.02394431 0.15876589 24.89720071
      H 9.67053395 11.33419533 25.184056209999998
      H 9.412176639999998 0.8011349 25.235056309999997
      O 6.073935299999999 11.89904409 28.9927967
      H 6.176873329999999 0.69647032 28.605967009999997
      H 6.775125349999999 11.30988756 28.7116067
      O 7.09477197 9.32902025 21.73344579
      H 7.834298219999999 9.49289883 21.14784865
      H 7.33448553 9.92897945 22.440438739999998
      O 3.7664282299999994 4.68129764 16.30650849
      H 4.14892813 4.65040038 17.20444898
      H 3.1257247799999996 3.9443045100000003 16.25991896
      O 6.45025326 2.64200052 17.46589159
      H 6.86124559 2.43654225 18.348988809999998
      H 5.77056044 2.01824975 17.262825049999996
      O 4.23325977 10.12085853 21.23944329
      H 5.12204854 9.83182425 21.490720539999998
      H 4.03041825 11.0241129 21.554063469999996
      O 3.22864002 0.70669952 35.298133709999995
      H 2.73062802 0.35748035 36.10066198
      H 2.9676219599999993 0.17543978 34.55966506
      O 9.39664496 3.3916198999999994 23.98037208
      H 8.81875498 4.15554565 23.734031459999997
      H 9.10940963 3.1815475400000004 24.88774534
      O 0.7870235699999999 11.26253005 22.58404698
      H 0.17788875999999998 10.8882595 21.883788629999998
      H 0.21021767 11.71121304 23.265560909999998
      O 9.47618385 4.90161942 32.59775068
      H 8.9190283 5.04108729 33.38140399
      H 9.9343644 4.08735511 32.6857901
      O 8.29921414 7.35002683 17.64881639
      H 8.32665034 6.366426679999999 17.38475956
      H 7.383543339999999 7.678080670000001 17.6715652
      O 8.78219679 5.32343657 30.020481359999998
      H 9.49808646 5.91064496 29.775230509999997
      H 9.0742305 5.11409048 30.92880157
      O 10.182879939999998 6.521628040000001 26.133148199999997
      H 0.1762296 5.6710825 26.252291399999997
      H 9.21603341 6.32858815 26.389804009999995
      O 0.61978623 1.33602754 12.59414789
      H 1.47083819 1.73906519 12.977240079999998
      H 10.40804299 2.0993182 12.79033069
      O 7.482038309999999 9.73101404 28.398065949999996
      H 7.178526209999999 9.41334904 29.340538549999998
      H 8.42308033 9.39637584 28.226873529999995
      O 1.50728434 10.89523477 30.630048819999995
      H 1.23894179 11.34561269 29.862964389999995
      H 0.80611149 10.1683878 30.76005396
      O 3.96272891 4.5904838 18.99941277
      H 4.62045887 5.15393598 19.442822139999997
      H 3.8913555499999997 3.6936155600000005 19.325216179999998
      O 6.072028239999999 1.95733699 27.585674909999998
      H 5.356165379999999 1.64707762 26.94139368
      H 5.86926603 2.86693568 27.808553569999997
      O 3.6138014999999997 8.85802801 33.66855677
      H 3.94327219 9.67856305 33.19566939999999
      H 4.11904306 8.85630486 34.58006440999999
      O 6.05282239 5.38410967 30.8247562
      H 5.98897922 5.82854433 31.769877559999998
      H 6.999264289999999 5.50419905 30.452392639999996
      O 10.44387122 1.19228979 16.84656081
      H 9.92538118 0.79819024 17.644053979999995
      H 0.37121873 0.41764356 16.326660169999997
      O 3.70072204 11.560493 32.81355604
      H 3.2299819799999994 11.59875686 31.944792599999996
      H 4.68516656 11.80784289 32.62073122
      O 3.6352795599999994 5.45025197 26.49402054
      H 3.9051683299999995 5.41957341 25.537255889999997
      H 2.8215732699999996 4.93775286 26.65611304
      O 1.4964784099999997 5.31069791 19.18412454
      H 2.5804039799999994 5.12317544 19.15189769
      H 1.24573226 5.6579399 18.315966649999996
      O 8.48108715 6.12835554 36.87689256
      H 9.46533623 6.129937269999999 36.932129159999995
      H 8.25844182 7.01705319 37.24258007
      O 3.1179014899999995 0.47267067 21.644251219999997
      H 2.2490409 0.23164442000000002 21.87202564
      H 3.5150217499999994 1.11335287 22.28825893
      O 3.0047971499999995 6.175302000000001 32.74228809
      H 3.58762344 6.92090578 32.93003359
      H 2.09079229 6.46410486 32.77058462
      O 6.162415529999999 3.1215184599999994 12.409846689999998
      H 6.20400999 2.19883538 12.69909289
      H 5.767198069999999 3.11648979 11.522001
      O 2.48962666 4.9935929 12.837509699999998
      H 1.5627579799999998 5.29620989 13.0367349
      H 2.93618154 5.834307210000001 12.99007254
      O 6.3432656199999995 2.47723605 37.3234721
      H 6.669345109999999 1.78434645 37.84513387
      H 6.78692768 2.35175591 36.4428643
      O 5.11051901 9.8254797 12.67162484
      H 4.86951255 10.74540238 12.92820576
      H 6.066530949999999 9.72858888 12.849654079999999
      O 6.417948159999999 8.59058823 26.192454819999995
      H 6.45868539 9.07640028 27.02528845
      H 5.810283669999999 9.10986663 25.594687709999995
      O 2.97212956 2.60460239 13.874833989999999
      H 2.94403578 3.52133399 13.486844729999998
      H 2.38920571 2.60963714 14.67656715
      O 8.7748439 7.31793555 12.23609938
      H 7.90444927 6.92542419 12.466335349999998
      H 9.0041464 6.98835242 11.27457806
      O 6.11070158 9.17289861 30.69169312
      H 5.891643829999999 8.22463864 30.824853619999995
      H 6.62224203 9.51732477 31.56512321
      O 10.28569604 9.07951911 30.572449739999996
      H 10.35532102 8.49381934 31.30894944
      H 0.00285354 8.49239504 29.76836354
      O 4.7057571 10.42108384 24.797572629999998
      H 3.96867874 9.94393236 24.307584929999997
      H 5.3640573 10.66273949 24.190543989999995
      O 7.78585767 2.5479423 19.71066576
      H 8.65216952 3.03932705 19.84418589
      H 7.587016509999999 2.18873093 20.651314679999995
      O 5.940879689999999 4.78677219 14.44380163
      H 5.9666618399999996 4.03484224 13.762376199999999
      H 5.13014033 4.60668299 15.01834834
      O 0.72801177 0.49203871 32.798570649999995
      H 0.91729671 12.00356669 31.9849808
      H 10.21465313 0.41346482 32.95957952
      O 5.26185999 6.64206626 20.23624541
      H 5.470019799999999 7.34553535 19.51640914
      H 6.12999393 6.37679628 20.68307289
      O 0.50096814 7.24775032 32.77971927
      H 10.301141169999998 6.460838339999999 32.56247708
      H 0.12412432 7.76971659 33.48843635
      O 3.3415470499999995 1.8573832900000002 19.43056431
      H 3.6800984599999995 1.31262957 18.69327746
      H 3.22533018 1.27813879 20.251405659999996
      O 7.267814339999999 10.8971309 23.74088133
      H 8.11879113 10.461060350000002 24.19099081
      H 7.490251859999999 11.7925689 23.367952789999997
      O 9.94992473 0.07016958 29.03452882
      H 9.55136363 11.55022495 29.68041989
      H 9.994630339999999 11.57668715 28.20570704
      O 8.317535839999998 2.05207627 15.38919484
      H 7.70606841 2.45569106 15.94141689
      H 9.002906319999997 1.6378332599999998 15.957885339999999
      O 5.79169842 4.60101121 28.014572089999998
      H 5.64349431 4.95263206 28.89571447
      H 5.16946694 5.07839046 27.374246149999998
      O 4.58747141 2.18996896 22.938545829999995
      H 4.53627705 1.8988570599999999 23.929591869999996
      H 4.40997454 3.10925612 22.930271659999995
      O 10.43526956 5.63737504 13.543321949999997
      H 10.09344672 6.3737961 12.988039749999999
      H 9.854632079999998 4.8445306 13.29215839
      O 2.97422973 3.6033802100000005 30.382654019999997
      H 2.9004264299999996 2.99094912 29.582535219999997
      H 3.8290166399999994 3.43485412 30.754501139999995
      O 10.3398015 8.00310422 23.879296069999995
      H 0.107138 7.35820414 24.67024155
      H 0.76396006 8.53845603 23.81472356
      O 1.42476275 3.6756334 35.04900112
      H 1.45453227 3.53589653 34.11568644999999
      H 1.9083371099999997 2.93085464 35.47163802
      O 1.54668342 2.00346227 24.904734989999998
      H 1.61117614 2.31687155 23.97339795
      H 0.9183422 1.23764202 24.99829943
      O 2.9636612899999997 7.2129711 15.98291599
      H 3.0451293199999996 7.1820186 15.029498389999999
      H 3.0352843199999997 6.29747611 16.3917647
      O 4.26910036 0.95475491 25.5541239
      H 3.3410939999999996 1.12970463 25.63274696
      H 4.391702919999999 12.00907629 25.41348434
      O 4.15931264 5.06348865 35.03060163
      H 4.72582677 4.23335179 34.78277099
      H 3.53006878 5.28108616 34.27430041
      O 5.95254276 6.47722127 33.30782684
      H 5.30250858 6.18578668 33.9960739
      H 6.11206355 7.466800360000001 33.53929209999999
      O 4.75260283 9.26269208 36.13756915
      H 5.51288478 9.89003586 35.98573061
      H 4.995117839999999 8.37092547 36.62307508
      O 0.43235557 6.965004230000001 28.799864309999997
      H 1.3590095799999997 6.62738938 29.00177603
      H 0.19008047999999997 6.980330230000001 27.82826875
      O 9.25799416 9.04682845 34.69051296
      H 10.09635315 9.52969705 34.63368928
      H 9.071932749999998 8.96265919 35.67628191
      O 4.0788646 10.67767039 18.532572079999998
      H 4.05517607 10.45805943 19.51830352
      H 3.3139368199999995 10.08518505 18.272700839999995
      O 9.45560782 3.15181349 28.628019779999995
      H 9.30126736 2.29627109 28.994098929999996
      H 9.11413449 3.84583076 29.181720759999997
      O 7.397675709999999 2.40254927 34.81025177
      H 7.898447139999999 1.8753411 34.10731017999999
      H 7.56276688 3.4320873 34.720387679999995
      O 5.54899612 2.87763537 31.439800549999998
      H 6.02224479 3.74692796 31.26296857
      H 5.12661391 3.0248557200000006 32.32043478
      O 4.422928199999999 0.70942527 16.72828917
      H 3.9773935299999996 0.7191907 15.89419288
      H 4.0700626 11.98562262 17.17584578
      O 2.84209634 1.86158614 28.245282629999995
      H 3.0906148399999998 0.92985932 28.538596149999996
      H 1.8643125299999999 1.88179976 28.17447285
      O 0.20075238 3.1588659600000004 19.86585929
      H 0.6502004399999999 4.04272181 19.628234019999997
      H 0.77148654 2.37751887 19.67234083
      O 0.9228495 3.02655538 32.32393523
      H 1.34222075 3.53666951 31.64640519
      H 1.15395032 2.04538422 32.35896202
      O 1.8804391899999997 11.63554334 37.31499635
      H 1.9210295099999999 10.63515573 37.08575745
      H 1.90153312 11.56509903 38.35327123
      O 6.277522339999999 0.24691563 31.634655129999995
      H 6.04893646 1.19457339 31.647561899999996
      H 6.003610579999999 11.9913296 30.701785829999995
      O 4.473644829999999 5.27134633 23.96365731
      H 4.18077699 5.90971711 23.30494401
      H 5.476493629999999 5.16907321 23.83781368
      O 3.0542388899999997 8.02352973 13.18354019
      H 2.4497735099999995 8.83770976 13.185759189999999
      H 3.9373434899999995 8.47782382 12.994009589999997
      O 7.904707039999999 5.00418658 16.530811439999997
      H 7.397978659999999 5.12586376 15.732282549999999
      H 7.31100724 4.32713904 16.89841864
      O 8.81065221 0.30127975 18.90459529
      H 8.43099101 1.18559365 19.15075363
      H 8.18394486 11.93002242 18.29759601
      O 3.79435161 12.06714084 13.1019377
      H 2.87694207 11.77948322 12.81143578
      H 3.6436906699999994 0.9934468000000001 13.10696823
      O 2.77534413 6.200838710000001 29.87898398
      H 2.8421241599999996 5.19539784 29.888160819999996
      H 2.8126479599999996 6.28563462 30.879689789999997
      O 2.09657422 9.57767904 24.19377453
      H 2.2810075899999998 9.89798943 25.15303981
      H 1.5695256499999999 10.22984556 23.62272226
      O 5.48514589 8.26532328 18.3002174
      H 5.262058869999999 9.27314487 18.44087065
      H 4.78403839 8.1168808 17.55162456
      O 0.27118405 5.4873991 16.25003206
      H 0.11815175999999998 5.82460001 15.3504217
      H 9.78650408 5.18086287 16.47916596
      O 1.72096849 3.1558835000000003 22.359258189999995
      H 1.17501205 2.94533843 21.557459989999998
      H 1.09107998 3.56663803 23.016743019999996
      O 0.84027409 10.77041759 15.850572659999997
      H 1.34225351 10.14875534 16.48900786
      H 1.14650945 10.63329678 14.949875929999997
      O 3.6416241099999995 11.35302054 28.684632389999997
      H 4.64198681 11.52638536 28.762183349999997
      H 3.3326790999999996 10.97381001 29.53596425
      O 6.92812964 9.14322067 33.33519505
      H 7.87178517 9.40080395 33.671916859999996
      H 6.40079662 9.80929916 33.79306427
      O 8.779903239999998 9.56893814 15.705781619999998
      H 8.6905442 8.72435251 16.192241539999998
      H 9.77201279 9.87034056 15.732834979999998
      O 6.1220166 6.58088501 12.42788473
      H 5.87681765 5.915647090000001 13.154553059999998
      H 5.6736345 6.409843369999999 11.57028277
      O 9.03658007 3.19921936 13.19859534
      H 8.23427124 3.2379728 12.664669229999998
      H 8.724390509999997 2.71451293 13.990686449999998
      O 2.48644148 9.78097054 26.85574473
      H 2.84483629 10.56434795 27.32555328
      H 3.0421960199999996 9.01349317 27.257870499999996
      O 8.3171276 0.34325164 33.11295553
      H 7.591119739999999 0.37029628 32.45076836
      H 8.07092765 11.79913057 33.78834147
      O 7.8797060299999995 5.15638546 34.54040237
      H 8.122896689999997 5.69382553 35.36242629
      H 7.18821898 5.800435740000001 34.105919039999996
      O 1.1246308 10.03500476 34.28213102
      H 1.76466692 9.45615383 33.86577873
      H 1.15751883 10.85234338 33.79457859
      O 3.8636410099999994 7.830297100000001 28.109671779999996
      H 3.86577552 7.26485961 27.36053382
      H 3.44648771 7.310049090000001 28.857454589999996
      O 9.82915224 0.90369466 37.38770982
      H 9.72395298 1.83295669 37.00801749
      H 0.09959704 0.48416828000000006 36.833135309999996
    &END COORD
    &KIND H
      POTENTIAL GTH-PBE-q1
      BASIS_SET DZVP-MOLOPT-SR-GTH
    &END KIND
    &KIND O
      POTENTIAL GTH-PBE-q6
      BASIS_SET DZVP-MOLOPT-SR-GTH
    &END KIND
    &KIND Al
      POTENTIAL GTH-PBE-q17
      ELEMENT Co
      BASIS_SET DZVP-MOLOPT-SR-GTH
      &BS
        &BETA
          N 3       4
          NEL -3      -2
          L 2       0
        &END BETA
        &ALPHA
          N 3       4
          NEL +3      -2
          L 2       0
        &END ALPHA
      &END BS
      &DFT_PLUS_U
        L 2
        U_MINUS_J [eV]  3.6
      &END DFT_PLUS_U
    &END KIND
    &KIND Co
      POTENTIAL GTH-PBE-q17
      ELEMENT Co
      BASIS_SET DZVP-MOLOPT-SR-GTH
      &BS
        &BETA
          N 3      4
          NEL +3     -2
          L 2      0
        &END BETA
        &ALPHA
          N 3      4
          NEL -3     -2
          L 2      0
        &END ALPHA
      &END BS
      &DFT_PLUS_U
        L 2
        U_MINUS_J [eV] 3.6
      &END DFT_PLUS_U
    &END KIND
  &END SUBSYS
  &DFT
    POTENTIAL_FILE_NAME /data/jyhu/basis/GTH_POTENTIALS
    PLUS_U_METHOD MULLIKEN
    UKS .TRUE.
    BASIS_SET_FILE_NAME /data/jyhu/basis/BASIS_MOLOPT
    &MGRID
      REL_CUTOFF 60
      NGRIDS 5
      CUTOFF 800
    &END MGRID
    &QS
      EPS_DEFAULT 1.0E-13
    &END QS
    &XC
      &VDW_POTENTIAL
        POTENTIAL_TYPE PAIR_POTENTIAL
        &PAIR_POTENTIAL
          REFERENCE_FUNCTIONAL PBE
          PARAMETER_FILE_NAME /data/jyhu/basis/dftd3.dat
          TYPE DFTD3
        &END PAIR_POTENTIAL
      &END VDW_POTENTIAL
      &XC_FUNCTIONAL PBE
      &END XC_FUNCTIONAL
    &END XC
    &SCF
      EPS_SCF 1e-06
      MAX_SCF 50
      SCF_GUESS RESTART
      &OUTER_SCF
        EPS_SCF 1e-06
        MAX_SCF 15
      &END OUTER_SCF
      &OT
        ENERGY_GAP 0.1
        PRECONDITIONER FULL_SINGLE_INVERSE
        MINIMIZER CG
      &END OT
    &END SCF
  &END DFT
&END FORCE_EVAL
