ATOMIC_SPECIES
Sn  118.71  Sn.pz-bhs.UPF 

LATTICE_CONSTANT
23.45378

NUMERICAL_ORBITAL
Sn_pz-bhs_8.0au_16Ry_2s2p1d

LATTICE_VECTORS
1.00000      0.00000      0.00000
0.00000      1.00000      0.00000
0.00000      0.00000      1.00000

ATOMIC_POSITIONS
Direct 

Sn
0.0
64
0.000	0.000	0.000	1	1	1
0.000	0.250	0.250	1	1	1
0.250	0.000	0.250	1	1	1
0.250	0.250	0.000	1	1	1
0.375	0.125	0.375	1	1	1
0.125	0.125	0.125	1	1	1
0.125	0.375	0.375	1	1	1
0.375	0.375	0.125	1	1	1
0.500	0.000	0.000	1	1	1
0.500	0.250	0.250	1	1	1
0.750	0.000	0.250	1	1	1
0.750	0.250	0.000	1	1	1
0.875	0.125	0.375	1	1	1
0.625	0.125	0.125	1	1	1
0.625	0.375	0.375	1	1	1
0.875	0.375	0.125	1	1	1
0.000	0.500	0.000	1	1	1
0.000	0.750	0.250	1	1	1
0.250	0.500	0.250	1	1	1
0.250	0.750	0.000	1	1	1
0.375	0.625	0.375	1	1	1
0.125	0.625	0.125	1	1	1
0.125	0.875	0.375	1	1	1
0.375	0.875	0.125	1	1	1
0.500	0.500	0.000	1	1	1
0.500	0.750	0.250	1	1	1
0.750	0.500	0.250	1	1	1
0.750	0.750	0.000	1	1	1
0.875	0.625	0.375	1	1	1
0.625	0.625	0.125	1	1	1
0.625	0.875	0.375	1	1	1
0.875	0.875	0.125	1	1	1
0.000	0.000	0.500	1	1	1
0.000	0.250	0.750	1	1	1
0.250	0.000	0.750	1	1	1
0.250	0.250	0.500	1	1	1
0.375	0.125	0.875	1	1	1
0.125	0.125	0.625	1	1	1
0.125	0.375	0.875	1	1	1
0.375	0.375	0.625	1	1	1
0.500	0.000	0.500	1	1	1
0.500	0.250	0.750	1	1	1
0.750	0.000	0.750	1	1	1
0.750	0.250	0.500	1	1	1
0.875	0.125	0.875	1	1	1
0.625	0.125	0.625	1	1	1
0.625	0.375	0.875	1	1	1
0.875	0.375	0.625	1	1	1
0.000	0.500	0.500	1	1	1
0.000	0.750	0.750	1	1	1
0.250	0.500	0.750	1	1	1
0.250	0.750	0.500	1	1	1
0.375	0.625	0.875	1	1	1
0.125	0.625	0.625	1	1	1
0.125	0.875	0.875	1	1	1
0.375	0.875	0.625	1	1	1
0.500	0.500	0.500	1	1	1
0.500	0.750	0.750	1	1	1
0.750	0.500	0.750	1	1	1
0.750	0.750	0.500	1	1	1
0.875	0.625	0.875	1	1	1
0.625	0.625	0.625	1	1	1
0.625	0.875	0.875	1	1	1
0.875	0.875	0.625	1	1	1