&CONTROL
  title = "water 63mol+OH- PBE 330K",
  calculation = 'cp-wf',
  restart_mode = "restart",
  prefix = "oh-scan",
  pseudo_dir = '/global/homes/l/lxzheng/Pseudo_Potentials/',
  outdir = './SimulationFiles/',
  nstep = 10000,
  isave  = 100,
  dt = 2.D0,
  tstress = .true.,
  tprnfor = .true.,
  iprint = 5,
  !ndr = 68,
  !ndw = 68,
  ekin_conv_thr = 1.D-6,
  max_seconds = 3000,
/
&SYSTEM
  ibrav     = 1,
  celldm(1) = 23.5170,
  nat       = 191,
  ntyp      = 2,
  ecutwfc   = 85.00D0, 
  ecfixed   = 130.D0, ! effective cutoff value
  q2sigma   = 15.D0,
  qcutz     = 200.D0,
  input_dft = 'scan',
  tot_charge    = -1
/
&ELECTRONS
  electron_dynamics     = "verlet",
  emass                 = 100.D0,
  emass_cutoff          = 25.D0,
  ortho_max             = 800,
  electron_maxstep      = 500,
/
&IONS
   ion_dynamics     = "verlet",
   ion_temperature  = 'nose',
   fnosep           = 60,
   tempw            = 330,
   nhpcl            = 4,
   nhptyp           = 2,
   ndega            = -3
   ion_radius(1)    = 1.4
   ion_radius(2)    = 1.4
/
&WANNIER
  nit    =  60,
  calwf  =   3,
  tolw   =   1.D-6, nsteps =   50,
  adapt  = .FALSE.
  wfdt   = 2.0D0,
  wf_q   = 500.D0,
  wf_friction = 0.3d0,
/
!REF_CELL_PARAMETERS {bohr} 
!   23.920   0.00000000    0.00000000
!   0.00    23.920         0.00
!   0.00    0.00          23.920
ATOMIC_SPECIES
O   15.9994    O_HSCV_PBE-1.0.UPF
H   2.01410178 H_HSCV_PBE-1.0.UPF
ATOMIC_POSITIONS {bohr}
O     0.298803E+02  0.153223E+02 -0.419200E+01
O     0.454769E+01  0.664506E+01  0.160736E+02
O     0.335863E+01 -0.115286E+01  0.138145E+02
O     0.193495E+02  0.229278E+02 -0.189349E+01
O     0.124183E+02  0.214136E+02  0.700355E+01
O     0.399341E+00  0.116651E+02  0.383447E+02
O     0.132954E+02  0.152256E+02  0.132264E+02
O     0.290905E+02  0.170541E+02  0.746585E+00
O     0.152971E+02  0.151271E+02  0.236618E+02
O     0.322872E+00  0.116485E+02  0.203701E+02
O     0.629423E+01  0.114610E+02  0.107263E+02
O    -0.244187E+01  0.467506E+01  0.164861E+02
O     0.110439E+02  0.627913E+01  0.698845E+01
O     0.149585E+02  0.197098E+02  0.106819E+02
O    -0.326102E+01  0.632856E+01  0.569267E+01
O     0.235539E+01  0.210716E+02  0.125401E+01
O     0.259828E+02  0.739963E+01  0.111592E+02
O    -0.739105E+01  0.215164E+02  0.177911E+02
O     0.140659E+02 -0.129852E+02  0.987095E+01
O    -0.283988E+01  0.966323E+01  0.249001E+01
O     0.403883E+01  0.195079E+02  0.772024E+01
O     0.145313E+02  0.254773E+02  0.152608E+02
O     0.976636E+00  0.649568E+01  0.203085E+02
O    -0.278292E+01  0.678775E+01  0.115707E+02
O     0.127885E+02  0.195244E+02  0.219456E+02
O     0.210219E+02  0.194175E+02  0.172636E+01
O     0.839073E+01  0.135763E+02  0.669174E+01
O     0.185633E+02  0.112206E+02  0.789064E+01
O     0.146610E+02  0.261445E+02  0.657548E+01
O     0.552846E+01  0.251119E+02 -0.621746E+01
O     0.178633E+02  0.166226E+02  0.522465E+01
O     0.930903E+01  0.225652E+02  0.151864E+02
O     0.235644E+02  0.192532E+02  0.188769E+02
O     0.164770E+02  0.588006E+01 -0.556703E+01
O     0.747586E+01  0.220359E-01  0.656938E+01
O    -0.152822E+01  0.234548E+02 -0.824843E+01
O     0.184168E+02  0.313323E+01  0.257777E+02
O     0.740836E+01  0.189537E+02  0.115569E+02
O     0.115773E+02  0.118510E+02  0.185979E+02
O     0.186516E+01  0.236810E+02 -0.257585E+01
O     0.251817E+02  0.458963E+01  0.295722E+02
O     0.991904E+01  0.977392E+01  0.383524E+01
O     0.197366E+02 -0.167164E+01  0.112839E+02
O     0.106754E+02  0.158008E+01  0.214195E+02
O     0.986884E+01  0.177852E+02  0.389280E+01
O     0.137497E+01 -0.105027E+02  0.943958E+01
O     0.103146E+02  0.500640E+01  0.173493E+02
O     0.203186E+02  0.144744E+02  0.117265E+02
O     0.167562E+02  0.733384E+01 -0.900460E+00
O     0.677862E+01  0.244339E+02  0.150461E+01
O     0.221336E+02  0.143039E+02  0.248612E+02
O     0.170271E+02  0.289973E+01  0.344079E+02
O     0.327338E+01  0.151648E+02  0.533559E+01
O     0.102243E+02  0.184026E+02  0.178106E+02
O     0.178522E+02  0.172383E+02  0.153578E+02
O    -0.474989E+01  0.137815E+02  0.190663E+02
O    -0.146231E+02  0.920341E+01  0.154823E+02
O     0.128403E+02  0.111305E+02  0.232884E+02
O     0.271231E+02  0.511601E+01  0.246950E+02
O     0.725158E+01  0.394526E+01  0.938222E+01
O     0.242388E+02 -0.584493E+00  0.670226E+01
O     0.154067E+02  0.104911E+02  0.154183E+02
O     0.558934E+01  0.108024E+02  0.103824E+01
O     0.302048E+01 -0.706869E+01  0.149349E+02
H     0.503917E+01  0.486667E+01  0.163637E+02
H     0.439676E+01 -0.154143E+01  0.124217E+02
H     0.197554E+02  0.214766E+02 -0.895568E+00
H     0.884950E+01  0.216944E+02  0.135543E+02
H     0.252456E+02  0.129096E+02  0.379943E+02
H     0.147603E+02  0.151382E+02  0.144412E+02
H     0.276997E+02  0.183567E+02  0.116234E+01
H     0.145692E+02  0.167542E+02  0.233573E+02
H    -0.118878E+01  0.126310E+02  0.207794E+02
H     0.170688E+02  0.186799E+02  0.159783E+02
H     0.221001E+02  0.475751E+01  0.180712E+02
H     0.117594E+02  0.467436E+01  0.655174E+01
H     0.166117E+02  0.202612E+02  0.109647E+02
H    -0.295594E+01  0.311982E+02  0.442555E+01
H     0.211622E+01  0.215021E+02  0.299569E+01
H     0.266834E+02  0.697083E+01  0.127389E+02
H     0.149945E+02  0.217212E+02  0.192321E+02
H     0.156171E+02 -0.132705E+02  0.887900E+01
H    -0.418756E+01  0.932250E+01  0.134142E+01
H     0.722336E+01  0.122774E+02  0.932108E+01
H     0.150352E+02  0.268184E+02  0.164017E+02
H     0.196296E+01  0.621344E+01  0.218894E+02
H    -0.232831E+01  0.621452E+01  0.132744E+02
H     0.117020E+02  0.200007E+02 -0.345872E+00
H     0.206640E+02  0.194927E+02  0.350031E+01
H     0.934633E+01  0.150373E+02  0.654998E+01
H     0.190598E+02  0.942423E+01  0.758394E+01
H     0.141596E+02  0.244186E+02  0.665467E+01
H     0.478964E+01  0.245362E+02 -0.464707E+01
H     0.351332E+01  0.710396E+01  0.174888E+02
H     0.108470E+02  0.235428E+02  0.149914E+02
H     0.284424E+02  0.158246E+02 -0.517721E+01
H     0.160023E+02  0.729889E+01  0.169745E+02
H     0.647600E+01 -0.143876E+01  0.687064E+01
H     0.216058E+02  0.222512E+02 -0.693024E+01
H     0.179032E+02  0.460155E+01  0.246997E+02
H     0.624110E+01  0.190673E+02  0.100618E+02
H     0.119836E+02  0.114716E+02  0.203663E+02
H     0.209862E+01  0.225567E+02 -0.101440E+01
H     0.235351E+02  0.529536E+01  0.295305E+02
H     0.855005E+01  0.902937E+01  0.274611E+01
H     0.188450E+02 -0.541697E-01  0.110545E+02
H     0.103657E+02  0.303690E+01  0.203595E+02
H     0.105940E+02  0.193665E+02  0.424052E+01
H     0.304881E+01 -0.103459E+02  0.100490E+02
H     0.971327E+01  0.641455E+01  0.162052E+02
H     0.209518E+02  0.137237E+02  0.132518E+02
H     0.152260E+02  0.846642E+01 -0.610088E+00
H     0.579773E+01  0.229560E+02  0.124596E+01
H     0.236053E+02  0.147684E+02  0.257892E+02
H     0.180938E+02  0.437756E+01  0.105545E+02
H     0.697825E+00  0.206348E+02  0.199780E+02
H     0.873863E+01  0.173935E+02  0.177051E+02
H     0.163400E+02  0.173559E+02  0.587235E+01
H    -0.576760E+01  0.129385E+02  0.177886E+02
H     0.936416E+01  0.103452E+02  0.170116E+02
H     0.136491E+02  0.128850E+02  0.235017E+02
H     0.283857E+02  0.374748E+01  0.246466E+02
H     0.714628E+01  0.226591E+01  0.864252E+01
H     0.246905E+02  0.136070E+01  0.655567E+01
H     0.154917E+02  0.104141E+02  0.135830E+02
H     0.427078E+01  0.952054E+01  0.141529E+01
H     0.278269E+02 -0.602206E+01  0.139550E+02
H     0.296390E+02  0.161600E+02 -0.255796E+01
H     0.487591E+01  0.144068E+02  0.545136E+01
H     0.414386E+01  0.235356E+02  0.148632E+02
H     0.184446E+02  0.224445E+02 -0.339202E+01
H     0.107394E+02  0.221302E+02  0.728365E+01
H     0.240678E+02  0.103698E+02  0.371539E+02
H     0.137183E+02  0.142784E+02  0.117746E+02
H     0.286816E+02  0.155625E+02  0.159935E+01
H     0.160596E+02  0.153817E+02  0.253582E+02
H     0.947211E-01  0.114788E+02  0.185181E+02
H     0.737950E+01  0.114839E+02  0.121416E+02
H    -0.205840E+01  0.265202E+02  0.158489E+02
H     0.951562E+01  0.583144E+01  0.804223E+01
H     0.143414E+02  0.186921E+02  0.120281E+02
H    -0.433735E+01  0.507009E+01  0.491844E+01
H     0.359227E+01  0.181025E+02  0.659269E+01
H     0.272215E+02  0.846707E+01  0.103824E+02
H    -0.793117E+01  0.228465E+02  0.166034E+02
H     0.131051E+02 -0.145239E+02  0.978190E+01
H    -0.241474E+01  0.114508E+02  0.259235E+01
H     0.290715E+01  0.209396E+02  0.741901E+01
H     0.153711E+02  0.257970E+02  0.135331E+02
H     0.414012E+00  0.828010E+01  0.205089E+02
H    -0.129484E+01  0.672815E+01  0.104295E+02
H     0.118725E+02  0.194578E+02  0.203438E+02
H     0.228527E+02  0.198533E+02  0.150604E+01
H     0.906226E+01  0.124410E+02  0.553303E+01
H     0.194846E+02  0.117272E+02  0.936600E+01
H     0.159221E+02  0.262983E+02  0.519122E+01
H     0.708386E+01  0.242385E+02  0.169865E+02
H     0.180009E+02  0.150639E+02  0.610633E+01
H     0.133995E+02  0.208096E+02  0.846716E+01
H     0.229809E+02  0.178965E+02  0.199384E+02
H     0.182667E+02  0.537569E+01  0.174184E+02
H     0.731017E+01  0.450058E+00  0.473246E+01
H     0.115687E+00 -0.570575E+00  0.146188E+02
H     0.185968E+02  0.170482E+01  0.246379E+02
H     0.829652E+01  0.174055E+02  0.112129E+02
H     0.111082E+02  0.136415E+02  0.188457E+02
H     0.100411E+01  0.251305E+02 -0.203396E+01
H     0.259852E+02  0.543674E+01  0.310633E+02
H     0.104003E+02  0.830690E+01  0.482387E+01
H     0.202809E+02 -0.150094E+01  0.130816E+02
H     0.122539E+02  0.193517E+01  0.221381E+02
H     0.856959E+01  0.177238E+02  0.265006E+01
H     0.238199E+02 -0.926114E+01  0.101854E+02
H     0.119984E+02  0.452008E+01  0.168366E+02
H     0.196409E+02  0.160499E+02  0.121473E+02
H     0.166161E+02  0.672936E+01 -0.262030E+01
H     0.819420E+01  0.244281E+02  0.345622E+00
H    -0.183985E+01  0.161053E+02  0.102959E+01
H     0.159853E+02  0.303131E+01  0.935689E+01
H     0.209296E+01  0.142934E+02  0.650233E+01
H     0.995393E+01  0.199078E+02  0.168877E+02
H     0.185519E+02  0.164238E+02  0.167647E+02
H    -0.578126E+01  0.140872E+02  0.204929E+02
H    -0.163987E+02  0.860942E+01  0.155157E+02
H     0.120394E+02  0.106247E+02  0.249098E+02
H     0.265380E+02  0.512384E+01  0.264320E+02
H     0.573995E+01  0.427403E+01  0.104699E+02
H     0.231757E+02 -0.779355E+00  0.812816E+01
H     0.136576E+02  0.108624E+02  0.160647E+02
H     0.535378E+01  0.111388E+02  0.227836E+02
H     0.203385E+01 -0.583587E+01  0.157647E+02
