ATOMIC_SPECIES
Si 1.000 ./Si_ONCV_PBE-1.0.upf 	#Element, Mass, Pseudopotential

NUMERICAL_ORBITAL
./Si_gga_8au_60Ry_2s2p1d.orb

LATTICE_CONSTANT
10.2  			#Lattice constant

LATTICE_VECTORS
0.5 0.5 0.0 		#Lattice vector 1
0.5 0.0 0.5 		#Lattice vector 2
0.0 0.5 0.5 		#Lattice vector 3

ATOMIC_POSITIONS
Cartesian 		#Cartesian(Unit is LATTICE_CONSTANT)
Si 			#Name of element	
0.0			#Magnetic for this element.
2			#Number of atoms
0.00 0.00 0.00 1 1 1	#x,y,z, move_x, move_y, move_z
0.241 0.255 0.251 1 1 1
