Geometry = GenFormat {
4 C
N H
1     1        1.014150        0.112320        0.047370
2     2        3.909390        0.037985       -0.101159
3     2        0.702550       -0.851820       -0.060860
4     2        0.702550        0.603740       -0.789160
}
Driver = {}
Hamiltonian = DFTB {
  SCC = Yes
  MaxAngularMomentum = {
    N = "p"
    H = "p"
  }
  SlaterKosterFiles = {
    N-N = "/home/jz748/devel/git/Programs/Amber18/dat/slko/3ob-3-1/N-N.skf"
    H-H = "/home/jz748/devel/git/Programs/Amber18/dat/slko/3ob-3-1/H-H.skf"
    H-N = "/home/jz748/devel/git/Programs/Amber18/dat/slko/3ob-3-1/H-N.skf"
    N-H = "/home/jz748/devel/git/Programs/Amber18/dat/slko/3ob-3-1/N-H.skf"
  }
  ThirdOrderFull = Yes
  HubbardDerivs = {
    H = -0.1857
    N = -0.1535
  }
  HCorrection = Damping {
    Exponent = 4.0
  }
  PolynomialRepulsive = {}
  ShellResolvedSCC = No
  OldSKInterpolation = No
  RangeSeparated = None {}
  ReadInitialCharges = No
  InitialCharges = {}
  SCCTolerance = 1.0000000000000001E-005
  ConvergentSCCOnly = Yes
  SpinPolarisation = {}
  ElectricField = {}
  Solver = RelativelyRobust {}
  Charge = 0.0000000000000000
  MaxSCCIterations = 100
  OnSiteCorrection = {}
  Dispersion = {}
  Solvation = {}
  Electrostatics = GammaFunctional {}
  ThirdOrder = No
  Differentiation = FiniteDiff {
    Delta = 1.2207031250000000E-004
  }
  ForceEvaluation = "Traditional"
  Mixer = Broyden {
    MixingParameter = 0.20000000000000001
    InverseJacobiWeight = 1.0000000000000000E-002
    MinimalWeight = 1.0000000000000000
    MaximalWeight = 100000.00000000000
    WeightFactor = 1.0000000000000000E-002
  }
  Filling = Fermi {
    Temperature = 0.0000000000000000
  }
}
Options = {
  WriteDetailedOut = Yes
  WriteAutotestTag = No
  WriteDetailedXML = No
  WriteResultsTag = No
  RestartFrequency = 20
  RandomSeed = 0
  WriteHS = No
  WriteRealHS = No
  MinimiseMemoryUsage = No
  ShowFoldedCoords = No
  TimingVerbosity = 1
  WriteChargesAsText = No
}
Analysis = {
  CalculateForces = Yes
  ProjectStates = {}
  WriteEigenvectors = No
  WriteBandOut = Yes
  MullikenAnalysis = Yes
  WriteNetCharges = No
  AtomResolvedEnergies = No
}
ParserOptions = {
  ParserVersion = 11
  WriteHSDInput = Yes
  StopAfterParsing = No
  IgnoreUnprocessedNodes = No
}
Reks = None {}
ExcitedState = {}
