Geometry = GenFormat {
6 C
C H O N S Cl
1     1        1.000000        0.000000        0.000000
2     2        1.500000        0.000000        0.000000
3     3        2.000000        1.000000        0.000000
4     4        2.500000        0.000000        1.000000
5     5        3.000000        1.000000        1.000000
6     6        3.500000        0.500000        0.500000
}
Driver = {}
Hamiltonian = DFTB {
  SCC = Yes
}
