&control
calculation='scf',
prefix='water',
outdir='./OUT',
restart_mode='from_scratch',
disk_io='none',
tprnfor=.TRUE.,
tstress=.TRUE.,
pseudo_dir='./',
/
&system
ecutwfc=300,
nosym=.TRUE.,
input_dft='SCAN',
ibrav=0,
nat=192,
ntyp=2,
/
&electrons
conv_thr=1e-08,
electron_maxstep=128,

/

ATOMIC_SPECIES
O 16 O.tm.pbe.UPF
H 2 H.tm.pbe.UPF

CELL_PARAMETERS { angstrom }
12.223413 0.000000 0.000000 
0.233825 12.157046 0.000000 
0.199401 -0.308985 12.197568 

ATOMIC_POSITIONS { angstrom }
O 0.003590 0.003000 0.002850
O 0.112240 2.959610 3.052010
O 3.113400 3.042350 0.001100
O 3.342180 12.073500 3.052910
O 4.688210 1.397900 4.571500
O 1.585650 1.480740 1.523720
O 1.688870 4.444490 4.582640
O 4.699730 4.522030 1.528230
O 12.553780 12.000190 6.095480
O 0.211970 2.805690 9.139490
O 3.208360 2.880960 6.092380
O 3.432520 11.922890 9.152400
O 4.783730 1.246030 10.675660
O 1.679530 1.322850 7.625160
O 1.795050 4.286230 10.666600
O 4.790310 4.363680 7.628320
O 12.339240 6.075460 0.006070
O 12.447910 9.042480 3.050590
O 3.227500 9.116510 0.001780
O 3.225800 6.008140 3.055290
O 4.804930 7.479080 4.575810
O 1.691820 7.561660 1.521890
O 1.810220 10.521810 4.573900
O 4.810550 10.593960 1.516330
O 12.435060 5.922190 6.104140
O 0.328470 8.889650 9.144450
O 3.329080 8.966150 6.098370
O 3.325570 5.856920 9.144360
O 4.910870 7.325490 10.665900
O 1.792450 7.406190 7.626880
O 1.903360 10.365900 10.679200
O 4.912180 10.448820 7.625380
O 6.115950 0.000530 0.005800
O 6.223960 2.961130 3.046760
O 9.221970 3.038420 0.000050
O 9.448390 12.077770 3.051300
O 10.790720 1.400480 4.570760
O 7.695430 1.477350 1.528640
O 7.804730 4.444110 4.577850
O 10.803860 4.515310 1.525250
O 6.206880 -0.150620 6.104770
O 6.319880 2.800300 9.145500
O 9.325460 2.887910 6.096430
O 9.323360 -0.225230 9.152100
O 10.902380 1.249970 10.670200
O 7.799610 1.322510 7.619930
O 7.896280 4.288220 10.672520
O 10.899240 4.369480 7.612590
O 6.225130 6.088830 0.005660
O 6.334740 9.044730 3.045390
O 9.340710 9.116060 0.006100
O 9.340900 6.002910 3.051620
O 10.919230 7.486890 4.572640
O 7.809190 7.556540 1.523980
O 7.917760 10.528740 4.578110
O 10.924370 10.601930 1.525520
O 6.320060 5.919660 6.104190
O 6.438570 8.883750 9.147600
O 9.437720 8.964850 6.092110
O 9.432580 5.846060 9.152020
O 11.021210 7.320740 10.674600
O 7.907680 7.406730 7.621030
O 8.024440 10.373610 10.675800
O 11.018780 10.445910 7.619660
H 0.592560 0.543690 0.590840
H 1.362920 10.907780 11.263910
H 11.489720 0.673250 11.248630
H 11.876850 11.582190 0.579670
H 0.689340 2.407950 2.480490
H 0.709440 3.528040 3.607200
H 11.369730 2.000500 4.006630
H 11.375580 3.923280 2.086200
H 2.170560 2.056600 0.958000
H 3.698910 3.612500 0.568230
H 4.220040 1.808460 11.234240
H 2.753520 3.329560 11.622420
H 3.698460 0.459330 3.634540
H 2.174230 0.909390 2.078340
H 2.770770 11.525080 3.650060
H 4.242470 11.132000 2.093460
H 3.761910 2.337700 5.500640
H 5.283340 1.975910 4.010560
H 5.270160 0.828910 5.150610
H 2.650720 3.469430 5.514630
H 2.263690 5.030230 4.015840
H 1.142500 5.024300 5.148290
H 3.775920 5.458060 2.480820
H 5.290740 3.943160 2.092370
H 5.277870 5.089180 0.962490
H 1.096420 0.781390 7.033170
H 1.253740 11.071000 5.166320
H 11.731330 0.430620 5.540290
H 11.955390 11.427070 6.656850
H 0.754060 2.256040 8.546350
H 1.215300 3.743340 10.083760
H 11.495490 1.826780 10.105590
H 11.865570 3.400600 8.565540
H 2.249230 1.904020 7.028180
H 4.210850 3.788860 7.054030
H 4.176380 0.704970 10.108370
H 2.614520 0.340230 8.584950
H 2.847100 11.353150 9.722430
H 4.357350 10.984690 8.219480
H 5.714310 0.270100 11.631770
H 5.749870 2.208050 9.713220
H 0.867300 5.201850 11.633850
H 2.348260 4.869860 10.081780
H 3.867840 5.289810 8.554460
H 5.360090 3.763050 8.195520
H 5.736260 5.345070 6.668590
H 1.078180 7.011080 0.963100
H 11.767870 5.467220 0.553020
H 11.608000 6.740100 11.239760
H 1.131620 8.107320 2.079220
H 0.815220 9.610440 3.612420
H 11.480780 8.082440 4.015280
H 11.883760 9.647730 2.486040
H 2.663500 8.522990 0.563350
H 4.200280 10.057800 0.965500
H 3.987460 8.244260 11.631220
H 2.470450 9.785050 11.255560
H 4.219460 6.943870 3.987220
H 2.639020 6.565230 2.479730
H 3.905860 8.418810 5.514270
H 5.371270 8.056600 3.979100
H 5.729140 6.508830 5.521760
H 2.382420 9.953820 5.176160
H 5.751830 11.591850 0.554650
H 5.774800 9.622680 2.470040
H 0.804860 6.501580 6.662210
H 11.470110 4.960810 7.066160
H 11.870060 6.538010 5.540390
H 1.255290 7.980600 8.187570
H 0.908670 9.469700 9.717020
H 11.610410 7.907450 10.108200
H 11.976270 9.471710 8.589530
H 2.376520 8.000100 7.072500
H 3.949150 9.514640 6.669400
H 4.319160 6.784400 10.081210
H 2.760900 6.421800 8.547280
H 5.862440 6.356730 11.612730
H 5.480540 7.912420 10.078900
H 5.875650 11.428050 6.696550
H 5.489920 9.872090 8.206060
H 7.111310 0.910180 0.965120
H 7.474170 10.912910 11.262910
H 6.795580 2.410780 2.483650
H 6.832800 3.511350 3.605980
H 8.653040 2.428330 0.554530
H 10.219820 3.940280 0.954080
H 9.977820 2.166070 11.641730
H 8.470020 3.682030 11.232500
H 9.799560 0.474100 3.631520
H 8.257640 0.866590 2.091880
H 8.887410 11.510660 3.641180
H 10.347490 11.147010 2.090480
H 10.237960 1.977310 5.122810
H 8.746550 3.479520 5.537320
H 8.372320 5.046200 4.020630
H 7.238110 5.016170 5.133990
H 9.896720 5.446410 2.485510
H 6.815840 0.399800 6.678430
H 7.351280 11.066660 5.146590
H 6.866830 2.239110 8.589750
H 7.310580 3.716080 10.102420
H 8.384130 1.912210 7.067580
H 9.923700 3.461260 6.662790
H 9.918500 0.312010 9.742260
H 8.390150 0.755570 8.184920
H 8.985530 11.359770 9.742300
H 10.455660 10.996160 8.199260
H 6.968250 5.214630 11.609800
H 8.868080 5.274520 9.744260
H 10.361420 4.929290 8.197340
H 7.224000 6.984950 0.966980
H 6.881980 8.485670 2.457570
H 7.310610 9.980180 3.998240
H 8.779300 8.503680 0.550640
H 10.310720 10.043860 0.969720
H 10.098610 8.244090 11.635130
H 8.583510 9.790850 11.255920
H 9.954360 6.561090 3.616050
H 8.381840 6.960400 2.087110
H 10.375380 8.054810 5.130380
H 8.846710 9.531000 5.524450
H 7.313820 6.827930 7.072550
H 7.002600 8.334280 8.583550
H 7.048810 9.439410 9.720480
H 8.858840 8.378370 6.672960
H 10.411160 9.904740 7.055670
H 10.032300 6.401170 9.739050
H 8.464530 6.804850 8.183980

K_POINTS { automatic }
1 1 1 0 0 0 

