
&GLOBAL
  PRINT_LEVEL medium
  WALLTIME 43000
  PROJECT_NAME DPGEN
  RUN_TYPE MD
&END GLOBAL
&MOTION
  &MD
    &THERMOSTAT
      TYPE NOSE
    &END THERMOSTAT
    ENSEMBLE NVT
    STEPS 3
    TIMESTEP 0.5
    TEMPERATURE 330.0
  &END MD
  &PRINT
    &FORCES
      &EACH
        MD 1
      &END EACH
    &END FORCES
    &TRAJECTORY
      &EACH
        MD 1
      &END EACH
    &END TRAJECTORY
    &RESTART
      BACKUP_COPIES 3
      &EACH
        MD 1
      &END EACH
    &END RESTART
  &END PRINT
&END MOTION
&FORCE_EVAL
  METHOD QS
  STRESS_TENSOR ANALYTICAL
  &PRINT
    &FORCES ON
    &END FORCES
    &STRESS_TENSOR ON
    &END STRESS_TENSOR
  &END PRINT
  &SUBSYS
    &CELL
      A 10.  0.  0.
      B  0. 10.  0.
      C  0.  0. 10.
    &END CELL
    &COORD
      H 5.70191 3.8096  4.38845
      H 4.44601 4.65681 5.38195
      H 4.49216 4.90991 3.57756
      H 5.83825 5.62228 4.61068
      C 5.11666 4.75533 4.46123
    &END COORD
    &KIND H
      POTENTIAL GTH-PBE-q1
      BASIS_SET DZVP-GTH-PBE
    &END KIND
    &KIND C
      POTENTIAL GTH-PBE-q4
      BASIS_SET DZVP-GTH-PBE
    &END KIND
  &END SUBSYS
  &DFT
    POTENTIAL_FILE_NAME GTH_POTENTIALS
    PLUS_U_METHOD MULLIKEN
    UKS .TRUE.
    BASIS_SET_FILE_NAME BASIS_SET
    &MGRID
      REL_CUTOFF 60
      NGRIDS 5
      CUTOFF 800
    &END MGRID
    &QS
      EPS_DEFAULT 1.0E-13
    &END QS
    &XC
      &VDW_POTENTIAL
        POTENTIAL_TYPE PAIR_POTENTIAL
        &PAIR_POTENTIAL
          REFERENCE_FUNCTIONAL PBE
          PARAMETER_FILE_NAME dftd3.dat
          TYPE DFTD3
        &END PAIR_POTENTIAL
      &END VDW_POTENTIAL
      &XC_FUNCTIONAL PBE
      &END XC_FUNCTIONAL
    &END XC
    &SCF
      EPS_SCF 1e-06
      MAX_SCF 50
      SCF_GUESS RESTART
      &OUTER_SCF
        EPS_SCF 1e-06
        MAX_SCF 15
      &END OUTER_SCF
      &OT
        ENERGY_GAP 0.1
        PRECONDITIONER FULL_SINGLE_INVERSE
        MINIMIZER CG
      &END OT
    &END SCF
  &END DFT
&END FORCE_EVAL
