ATOMIC_SPECIES
Ga 69.723000 Ga.upf
As 74.921600 As.PD04.PBE.UPF

NUMERICAL_ORBITAL
Ga_gga_7au_100Ry_2s2p2d1f.orb
As_gga_8au_100Ry_2s2p1d.orb

LATTICE_CONSTANT
1.889716

LATTICE_VECTORS
    5.75018000000     0.00000000000     0.00000000000
    0.00000000000     5.75018000000     0.00000000000
    0.00000000000     0.00000000000     5.75018000000

ATOMIC_POSITIONS
Direct

Ga
0.000000
4
    0.00000000000     0.00000000000     0.00000000000 1 1 1 
    0.00000000000     0.50000000000     0.50000000000 1 1 1 
    0.50000000000     0.00000000000     0.50000000000 1 1 1 
    0.50000000000     0.50000000000     0.00000000000 1 1 1 

As
0.000000
4
    0.25000000000     0.25000000000     0.25000000000 1 1 1 
    0.25000000000     0.75000000000     0.75000000000 1 1 1 
    0.75000000000     0.25000000000     0.75000000000 1 1 1 
    0.75000000000     0.75000000000     0.25000000000 1 1 1 
