C4 Si4 
1.0
3.9821590818265662e+00 -6.3518285952025531e-18 -1.3636822777448101e-18 
1.4441625743554549e-02 3.8797851714535434e+00 -3.8802125261354576e-18 
2.7058404544835651e-01 5.0846848186579174e-01 4.0806630199703786e+00 
C Si 
4 4 
Cartesian
  -0.1284024102    0.0411632429    2.5392886616
   1.6605207719   -0.0253819250    0.3618554716
   0.1640583101    2.1563760674    0.4480081454
   2.1989105171    1.7886495520    2.0950553386
  -0.1078475228    0.2108036732   -0.3228714337
   1.8447569702    2.1025290971   -0.4494344734
   1.6511638763   -0.0784401477    1.9721672179
  -0.0382262924    1.6485487817    1.9674381019
