Hf24 O64 Zr8 
1.0
1.0001280000000000e+01 0.0000000000000000e+00 0.0000000000000000e+00 
0.0000000000000000e+00 1.0001280000000000e+01 0.0000000000000000e+00 
0.0000000000000000e+00 0.0000000000000000e+00 1.0163840000000000e+01 
Hf O Zr 
24 64 8 
Cartesian
0.000000 0.000000 0.000000
0.000000 0.000000 5.081920
0.000000 5.000640 5.081920
5.000640 0.000000 10.163840
5.000640 0.000000 5.081920
2.500320 0.000000 2.540960
2.500320 0.000000 7.622880
2.500320 5.000640 7.622880
7.500960 0.000000 2.540960
7.500960 0.000000 7.622880
7.500960 5.000640 2.540960
7.500960 5.000640 7.622880
0.000000 2.500320 2.540960
0.000000 2.500320 7.622880
10.001280 7.500960 2.540960
10.001280 7.500960 7.622880
5.000640 2.500320 7.622880
2.500320 2.500320 10.163840
2.500320 2.500320 5.081920
2.500320 7.500960 10.163840
2.500320 7.500960 5.081920
7.500960 2.500320 10.163840
7.500960 7.500960 0.000000
7.500960 7.500960 5.081920
3.750480 3.750480 1.485140
3.750480 3.750480 6.567060
3.750480 8.751120 1.485140
3.750480 8.751120 6.567060
8.751120 3.750480 1.485140
8.751120 3.750480 6.567060
8.751120 8.751120 1.485140
8.751120 8.751120 6.567060
3.750480 3.750480 4.026100
3.750480 3.750480 9.108020
3.750480 8.751120 4.026100
3.750480 8.751120 9.108020
8.751120 3.750480 4.026100
8.751120 3.750480 9.108020
8.751120 8.751120 4.026100
8.751120 8.751120 9.108020
3.750480 1.250160 1.055820
3.750480 1.250160 6.137740
3.750480 6.250800 1.055820
3.750480 6.250800 6.137740
8.751120 1.250160 1.055820
8.751120 1.250160 6.137740
8.751120 6.250800 1.055820
8.751120 6.250800 6.137740
3.750480 1.250160 3.596780
3.750480 1.250160 8.678700
3.750480 6.250800 3.596780
3.750480 6.250800 8.678700
8.751120 1.250160 3.596780
8.751120 1.250160 8.678700
8.751120 6.250800 3.596780
8.751120 6.250800 8.678700
1.250160 3.750480 1.055820
1.250160 3.750480 6.137740
1.250160 8.751120 1.055820
1.250160 8.751120 6.137740
6.250800 3.750480 1.055820
6.250800 3.750480 6.137740
6.250800 8.751120 1.055820
6.250800 8.751120 6.137740
1.250160 3.750480 3.596780
1.250160 3.750480 8.678700
1.250160 8.751120 3.596780
1.250160 8.751120 8.678700
6.250800 3.750480 3.596780
6.250800 3.750480 8.678700
6.250800 8.751120 3.596780
6.250800 8.751120 8.678700
1.250160 1.250160 1.485140
1.250160 1.250160 6.567060
1.250160 6.250800 1.485140
1.250160 6.250800 6.567060
6.250800 1.250160 1.485140
6.250800 1.250160 6.567060
6.250800 6.250800 1.485140
6.250800 6.250800 6.567060
1.250160 1.250160 4.026100
1.250160 1.250160 9.108020
1.250160 6.250800 4.026100
1.250160 6.250800 9.108020
6.250800 1.250160 4.026100
6.250800 1.250160 9.108020
6.250800 6.250800 4.026100
6.250800 6.250800 9.108020
0.000000 5.000640 10.163840
5.000640 5.000640 10.163840
5.000640 5.000640 5.081920
2.500320 5.000640 2.540960
5.000640 2.500320 2.540960
5.000640 7.500960 2.540960
5.000640 7.500960 7.622880
7.500960 2.500320 5.081920
