Hf24 O64 Zr8 
1.0
1.0001280000000000e+01 0.0000000000000000e+00 0.0000000000000000e+00 
0.0000000000000000e+00 1.0001280000000000e+01 0.0000000000000000e+00 
0.0000000000000000e+00 0.0000000000000000e+00 1.0163840000000000e+01 
Hf O Zr 
24 64 8 
Cartesian
   0.0000000000    0.0000000000    0.0000000000
   7.5009600000    7.5009600000    5.0819200000
   7.5009600000    7.5009600000    0.0000000000
   7.5009600000    2.5003200000   10.1638400000
   2.5003200000    7.5009600000    5.0819200000
   2.5003200000    7.5009600000   10.1638400000
   2.5003200000    2.5003200000    5.0819200000
   2.5003200000    2.5003200000   10.1638400000
   5.0006400000    2.5003200000    7.6228800000
  10.0012800000    7.5009600000    2.5409600000
   0.0000000000    2.5003200000    7.6228800000
   0.0000000000    2.5003200000    2.5409600000
   7.5009600000    5.0006400000    7.6228800000
   7.5009600000    5.0006400000    2.5409600000
  10.0012800000    7.5009600000    7.6228800000
   7.5009600000    0.0000000000    2.5409600000
   0.0000000000    0.0000000000    5.0819200000
   0.0000000000    5.0006400000    5.0819200000
   7.5009600000    0.0000000000    7.6228800000
   5.0006400000    0.0000000000    5.0819200000
   2.5003200000    0.0000000000    2.5409600000
   5.0006400000    0.0000000000   10.1638400000
   2.5003200000    0.0000000000    7.6228800000
   2.5003200000    5.0006400000    7.6228800000
   1.2501600000    8.7511200000    1.0558196992
   1.2501600000    8.7511200000    3.5967796992
   1.2501600000    3.7504800000    8.6786996992
   1.2501600000    3.7504800000    3.5967796992
   6.2508000000    8.7511200000    6.1377396992
   6.2508000000    8.7511200000    1.0558196992
   6.2508000000    3.7504800000    6.1377396992
   8.7511200000    1.2501600000    8.6786996992
   6.2508000000    3.7504800000    1.0558196992
   1.2501600000    3.7504800000    1.0558196992
   1.2501600000    8.7511200000    8.6786996992
   8.7511200000    6.2508000000    3.5967796992
   8.7511200000    6.2508000000    8.6786996992
   1.2501600000    8.7511200000    6.1377396992
   1.2501600000    3.7504800000    6.1377396992
   6.2508000000    3.7504800000    3.5967796992
   6.2508000000    6.2508000000    1.4851403008
   6.2508000000    8.7511200000    3.5967796992
   6.2508000000    1.2501600000    9.1080203008
   6.2508000000    1.2501600000    4.0261003008
   1.2501600000    6.2508000000    9.1080203008
   1.2501600000    6.2508000000    4.0261003008
   1.2501600000    1.2501600000    9.1080203008
   1.2501600000    1.2501600000    4.0261003008
   6.2508000000    6.2508000000    6.5670603008
   8.7511200000    1.2501600000    3.5967796992
   6.2508000000    1.2501600000    6.5670603008
   6.2508000000    1.2501600000    1.4851403008
   1.2501600000    6.2508000000    6.5670603008
   1.2501600000    6.2508000000    1.4851403008
   1.2501600000    1.2501600000    6.5670603008
   1.2501600000    1.2501600000    1.4851403008
   6.2508000000    8.7511200000    8.6786996992
   6.2508000000    3.7504800000    8.6786996992
   3.7504800000    6.2508000000    8.6786996992
   8.7511200000    8.7511200000    9.1080203008
   3.7504800000    1.2501600000    8.6786996992
   3.7504800000    3.7504800000    1.4851403008
   3.7504800000    3.7504800000    6.5670603008
   3.7504800000    8.7511200000    1.4851403008
   3.7504800000    8.7511200000    6.5670603008
   8.7511200000    3.7504800000    1.4851403008
   8.7511200000    3.7504800000    6.5670603008
   8.7511200000    8.7511200000    1.4851403008
   8.7511200000    8.7511200000    6.5670603008
   3.7504800000    6.2508000000    3.5967796992
   3.7504800000    3.7504800000    9.1080203008
   3.7504800000    8.7511200000    4.0261003008
   3.7504800000    8.7511200000    9.1080203008
   3.7504800000    3.7504800000    4.0261003008
   8.7511200000    3.7504800000    9.1080203008
   3.7504800000    1.2501600000    3.5967796992
   8.7511200000    3.7504800000    4.0261003008
   8.7511200000    6.2508000000    1.0558196992
   8.7511200000    1.2501600000    6.1377396992
   8.7511200000    1.2501600000    1.0558196992
   8.7511200000    6.2508000000    6.1377396992
   3.7504800000    6.2508000000    1.0558196992
   3.7504800000    1.2501600000    6.1377396992
   3.7504800000    1.2501600000    1.0558196992
   6.2508000000    6.2508000000    4.0261003008
   8.7511200000    8.7511200000    4.0261003008
   3.7504800000    6.2508000000    6.1377396992
   6.2508000000    6.2508000000    9.1080203008
   7.5009600000    2.5003200000    5.0819200000
   5.0006400000    7.5009600000    7.6228800000
   5.0006400000    7.5009600000    2.5409600000
   5.0006400000    2.5003200000    2.5409600000
   2.5003200000    5.0006400000    2.5409600000
   5.0006400000    5.0006400000    5.0819200000
   5.0006400000    5.0006400000   10.1638400000
   0.0000000000    5.0006400000   10.1638400000
