Hf32 O64
1.0
10.001280 0.000000 0.000000
0.000000 10.001280 0.000000
0.000000 0.000000 10.163840
Hf O
32 64
direct
0.000000 0.000000 0.000000 Hf
0.000000 0.000000 0.500000 Hf
0.000000 0.500000 1.000000 Hf
0.000000 0.500000 0.500000 Hf
0.500000 0.000000 1.000000 Hf
0.500000 0.000000 0.500000 Hf
0.500000 0.500000 1.000000 Hf
0.500000 0.500000 0.500000 Hf
0.250000 0.000000 0.250000 Hf
0.250000 0.000000 0.750000 Hf
0.250000 0.500000 0.250000 Hf
0.250000 0.500000 0.750000 Hf
0.750000 0.000000 0.250000 Hf
0.750000 0.000000 0.750000 Hf
0.750000 0.500000 0.250000 Hf
0.750000 0.500000 0.750000 Hf
0.000000 0.250000 0.250000 Hf
0.000000 0.250000 0.750000 Hf
1.000000 0.750000 0.250000 Hf
1.000000 0.750000 0.750000 Hf
0.500000 0.250000 0.250000 Hf
0.500000 0.250000 0.750000 Hf
0.500000 0.750000 0.250000 Hf
0.500000 0.750000 0.750000 Hf
0.250000 0.250000 1.000000 Hf
0.250000 0.250000 0.500000 Hf
0.250000 0.750000 1.000000 Hf
0.250000 0.750000 0.500000 Hf
0.750000 0.250000 1.000000 Hf
0.750000 0.250000 0.500000 Hf
0.750000 0.750000 0.000000 Hf
0.750000 0.750000 0.500000 Hf
0.375000 0.375000 0.146120 O
0.375000 0.375000 0.646120 O
0.375000 0.875000 0.146120 O
0.375000 0.875000 0.646120 O
0.875000 0.375000 0.146120 O
0.875000 0.375000 0.646120 O
0.875000 0.875000 0.146120 O
0.875000 0.875000 0.646120 O
0.375000 0.375000 0.396120 O
0.375000 0.375000 0.896120 O
0.375000 0.875000 0.396120 O
0.375000 0.875000 0.896120 O
0.875000 0.375000 0.396120 O
0.875000 0.375000 0.896120 O
0.875000 0.875000 0.396120 O
0.875000 0.875000 0.896120 O
0.375000 0.125000 0.103880 O
0.375000 0.125000 0.603880 O
0.375000 0.625000 0.103880 O
0.375000 0.625000 0.603880 O
0.875000 0.125000 0.103880 O
0.875000 0.125000 0.603880 O
0.875000 0.625000 0.103880 O
0.875000 0.625000 0.603880 O
0.375000 0.125000 0.353880 O
0.375000 0.125000 0.853880 O
0.375000 0.625000 0.353880 O
0.375000 0.625000 0.853880 O
0.875000 0.125000 0.353880 O
0.875000 0.125000 0.853880 O
0.875000 0.625000 0.353880 O
0.875000 0.625000 0.853880 O
0.125000 0.375000 0.103880 O
0.125000 0.375000 0.603880 O
0.125000 0.875000 0.103880 O
0.125000 0.875000 0.603880 O
0.625000 0.375000 0.103880 O
0.625000 0.375000 0.603880 O
0.625000 0.875000 0.103880 O
0.625000 0.875000 0.603880 O
0.125000 0.375000 0.353880 O
0.125000 0.375000 0.853880 O
0.125000 0.875000 0.353880 O
0.125000 0.875000 0.853880 O
0.625000 0.375000 0.353880 O
0.625000 0.375000 0.853880 O
0.625000 0.875000 0.353880 O
0.625000 0.875000 0.853880 O
0.125000 0.125000 0.146120 O
0.125000 0.125000 0.646120 O
0.125000 0.625000 0.146120 O
0.125000 0.625000 0.646120 O
0.625000 0.125000 0.146120 O
0.625000 0.125000 0.646120 O
0.625000 0.625000 0.146120 O
0.625000 0.625000 0.646120 O
0.125000 0.125000 0.396120 O
0.125000 0.125000 0.896120 O
0.125000 0.625000 0.396120 O
0.125000 0.625000 0.896120 O
0.625000 0.125000 0.396120 O
0.625000 0.125000 0.896120 O
0.625000 0.625000 0.396120 O
0.625000 0.625000 0.896120 O
