C4 Si4 
1.0
4.0393044668683302e+00 3.7866840715513190e-18 -3.4832403817178164e-18 
2.4199759881076477e-01 4.1312396844887331e+00 2.2713212548364351e-17 
4.4481025327383367e-01 2.0732581915669496e-01 4.0512745001512140e+00 
C Si 
4 4 
Cartesian
  -0.2187320173   -0.3278268312    1.9808168543
   1.7325893560   -0.2907437704   -0.1316407092
   0.1697204408    2.0456083784   -0.0881243869
   2.2762667222    2.3246948417    1.8605727611
  -0.0627770396    0.1611339796    0.0659268519
   2.0190368430    1.8199315498   -0.3333978387
   2.2452379290   -0.0729729887    2.3597409002
   0.0376749365    1.7102483986    2.1298706088
