POSCAR file written by OVITO
1
10 0.0 0.0
-0.011409 10 0.0
0.1411083 -0.0595569 10
 H O
 4 3
d
.428    .424    .520
.428    .424    .520
.230    .628    .113
.458    .352    .458
.389    .384    .603
.137    .626    .150
.231    .589    .021
