C4 Si4 
1.0
4.0817852422279959e+00 -8.0334347485565818e-20 1.4195449766884313e-17 
1.2315711101650186e-01 3.7860044730134366e+00 -1.7522489439993958e-18 
4.0639226354941010e-01 3.2444019947671882e-01 4.2124083393682454e+00 
C Si 
4 4 
Cartesian
  -0.1022885809    0.5553879154    2.3401729917
   1.4574918226   -0.0391762715    0.0190932943
  -0.0904993945    1.7684440711   -0.1710987880
   2.0638159391    2.1681985074    2.4580083474
  -0.3261354126    0.1759255681    0.2236316249
   2.0738703301    2.3024191125   -0.5031567813
   2.3488610334    0.3825072268    1.7330866249
  -0.0534780340    1.5938442575    1.8486892947
