C4 Si4 
1.0
4.1454462863815970e+00 0.0000000000000000e+00 0.0000000000000000e+00 
1.3000000000000000e-01 3.9594462863815970e+00 0.0000000000000000e+00 
2.5000000000000000e-01 3.7000000000000000e-01 4.0400062863815970e+00 
C Si 
4 4 
cartesian
  -0.0666948568    0.0604660432    2.1539831432
   1.9907431432   -0.0864349568    0.0663397432
   0.0885598432    2.0783031432    0.0622547432
   2.0324731432    2.0217031432    2.0253831432
  -0.0448649568    0.1153571432    0.0540263432
   1.9664731432    1.9313831432   -0.1405848568
   2.0807731432    0.0065058032    1.9956031432
   0.0632185432    1.9999431432    2.0438931432
