C4 Si4 
1.0
4.0354487481064565e+00 1.1027270790560616e-17 2.5642993008475204e-17 
2.0693526054669642e-01 4.1066892997402196e+00 -8.6715682899078028e-18 
4.2891472979598610e-01 5.5796885749827474e-01 4.1100061517204542e+00 
C Si 
4 4 
Cartesian
   0.2840021179   -0.6003817253    2.7192043932
   1.7870636884    0.4043686026   -0.3468222936
  -0.4647946470    2.0243215781   -0.0624256251
   2.1747504767    2.0704389063    2.4228997681
  -0.3817468326    0.0611851697    0.1116535817
   2.1483270977    2.3528212071   -0.3719335435
   2.4540854549    0.7297685673    1.8434611305
   0.1075358778    2.0300985762    2.0687710181
