C4 Si4 
1.0
4.0972699470293215e+00 1.0149069314692106e-18 -1.2199095357777910e-17 
1.0494335660165277e-01 4.0313628735769402e+00 -4.8506301604322156e-19 
4.3100124938951284e-01 4.1459063237657107e-01 4.1291342816555661e+00 
C Si 
4 4 
Cartesian
  -0.3125685718    0.3578306188    2.6198865483
   2.0773182946   -0.1374738727    0.1909202951
  -0.0358416028    2.2809266017    0.5372668691
   2.1005017067    2.2434342103    2.4385806771
  -0.1565383829    0.1676212247   -0.0494987290
   1.7296257122    1.9113469908   -0.0379209714
   2.4121509301    0.3178978635    2.4128037669
  -0.0098316038    1.8287827235    2.0661147519
