C4 Si4 
1.0
3.9448633066729739e+00 -3.6344794672422329e-18 1.1581293029516294e-17 
1.6817409381958889e-01 4.0320777239133783e+00 -8.7954588948930866e-19 
1.4551929935812052e-01 3.9989012843738053e-01 3.9977352939318109e+00 
C Si 
4 4 
Cartesian
   0.0946327782   -0.2781320996    1.6927633385
   2.1395921916   -0.5505295607    0.3561009428
  -0.2623111485    2.0403483142    0.5289485573
   2.0291102621    2.0166734366    1.4189102698
  -0.4274609464    0.4275845699   -0.2870878166
   1.8398859643    1.9175800522   -0.7344827910
   1.5794721062    0.2698516856    1.5600233361
   0.2272461445    2.4170250626    2.4545090907
