Cubic BN
   3.57
 0.00 0.50 0.50
 0.45 0.00 0.50
 0.55 0.51 0.00
 O H
   1 1
Direct
 0.00 0.00 0.00 
0.24727453 0.25272547 0.24777007
