C24 Si24
1.000000
      4.14544629        0.00000000        0.00000000
      0.26000000        7.91889257        0.00000000
      0.75000000        1.11000000       12.12001886
C Si
24 24
Cartesian
     -0.06669486        0.06046604        2.15398314
      0.18330514        0.43046604        6.19398943
      0.43330514        0.80046604       10.23399572
      0.06330514        4.01991233        2.15398314
      0.31330514        4.38991233        6.19398943
      0.56330514        4.75991233       10.23399572
      1.99074314       -0.08643496        0.06633974
      2.24074314        0.28356504        4.10634603
      2.49074314        0.65356504        8.14635232
      2.12074314        3.87301133        0.06633974
      2.37074314        4.24301133        4.10634603
      2.62074314        4.61301133        8.14635232
      0.08855984        2.07830314        0.06225474
      0.33855984        2.44830314        4.10226103
      0.58855984        2.81830314        8.14226732
      0.21855984        6.03774943        0.06225474
      0.46855984        6.40774943        4.10226103
      0.71855984        6.77774943        8.14226732
      2.03247314        2.02170314        2.02538314
      2.28247314        2.39170314        6.06538943
      2.53247314        2.76170314       10.10539572
      2.16247314        5.98114943        2.02538314
      2.41247314        6.35114943        6.06538943
      2.66247314        6.72114943       10.10539572
     -0.04486496        0.11535714        0.05402634
      0.20513504        0.48535714        4.09403263
      0.45513504        0.85535714        8.13403892
      0.08513504        4.07480343        0.05402634
      0.33513504        4.44480343        4.09403263
      0.58513504        4.81480343        8.13403892
      1.96647314        1.93138314       -0.14058486
      2.21647314        2.30138314        3.89942143
      2.46647314        2.67138314        7.93942772
      2.09647314        5.89082943       -0.14058486
      2.34647314        6.26082943        3.89942143
      2.59647314        6.63082943        7.93942772
      2.08077314        0.00650580        1.99560314
      2.33077314        0.37650580        6.03560943
      2.58077314        0.74650580       10.07561572
      2.21077314        3.96595209        1.99560314
      2.46077314        4.33595209        6.03560943
      2.71077314        4.70595209       10.07561572
      0.06321854        1.99994314        2.04389314
      0.31321854        2.36994314        6.08389943
      0.56321854        2.73994314       10.12390572
      0.19321854        5.95938943        2.04389314
      0.44321854        6.32938943        6.08389943
      0.69321854        6.69938943       10.12390572
